!   File created by the GAMESS Input Deck Generator Plugin for Avogadro
 $BASIS GBASIS=STO NGAUSS=3 $END
 $CONTRL SCFTYP=RHF RUNTYP=ENERGY NOSYM=1 MAXIT=100 CCTYP=CCSD(T) $END
 $SCF DIRSCF=.TRUE. CONV=1.0D-09 $END

 $DATA 
Title
C1
C     6.0    -4.17279     2.71785    -0.10705
N     7.0    -4.61074     1.36006     0.11435
O     8.0    -3.39764     1.66807    -0.47929
S    16.0    -3.54968     3.49993     1.40731
H     1.0    -4.65853     3.25487    -0.95033
H     1.0    -5.24440     1.07756    -0.66755
H     1.0    -4.78235     3.34711     2.06997
 $END
