molecule {
0 1
   C       -4.17279        2.71785       -0.10705
   N       -4.61074        1.36006        0.11435
   O       -3.39764        1.66807       -0.47929
   S       -3.54968        3.49993        1.40731
   H       -4.65853        3.25487       -0.95033
   H       -5.24440        1.07756       -0.66755
   H       -4.78235        3.34711        2.06997
}

set {
  basis sto-3g
  guess sad
  scf_type direct
  e_convergence 10
  d_convergence 10
}

energy('ccsd(t)')
